c clasp version 2.1.1
c Reading from p22.cnf
c Solving...
s SATISFIABLE

c Models        : 1+    
c Time          : 0.789s (Solving: 0.05s 1st Model: 0.05s Unsat: 0.00s)
c CPU Time      : 0.780s
c Choices       : 1994
c Conflicts     : 74
c Restarts      : 0     

c Variables     : 213246 (Eliminated: 66746 Frozen:    0)
c Constraints   : 250357 (Binary: 64.1% Ternary: 34.7% Other:  1.2%)
c Lemmas        : 74     (Binary:  0.0% Ternary:  0.0% Other:100.0%)
c   Conflict    : 74     (Average Length: 34.2) 
c   Loop        : 0      (Average Length: 0.0) 
c   Other       : 0      (Average Length: 0.0)
c   Deleted     : 0     
